param set_len = 20;
param target_sum = 4181904014;
param values := [1] 234836480 [2] 129842551 [3] 422779285 [4] 607609469 [5] 87323765 [6] 924442908 [7] 602656340 [8] 952156660 [9] 935327204 [10] 817005421 [11] 277386637 [12] 455572025 [13] 34981437 [14] 487787114 [15] 1379852 [16] 264171201 [17] 189392164 [18] 458088076 [19] 21321878 [20] 296643493 ;
